
  32    4
  10   10   10   10

   0   0   0   0   0   3 2 5 6 
  10   1   0   1   1   3 14 12 3 
   2   2   0   8   8   2 13 4 
   4   2   1   0   4   3 31 30 7 
   3   6   5   0   4   2 30 7 
   1   4   5   0   3   2 30 7 
   1   7   1   0   1   3 17 16 8 
   3   1   5   3   0   3 22 19 9 
   9   3   3   4   0   2 28 10 
   6   3   2   0   4   2 25 11 
   8   4   3   3   0   3 29 26 15 
   9   2   0   4   3   3 28 26 15 
   7   0   5   2   4   3 28 25 18 
   9   4   0   3   3   3 31 19 18 
   3   0   1   4   5   2 27 18 
   5   0   5   4   3   4 26 25 24 23 
   1   0   4   5   7   3 24 23 21 
   1   0   4   5   3   2 24 20 
  10   6   0   2   3   2 24 20 
   3   4   2   0   4   1 23 
   8   4   5   4   0   1 25 
   6   4   5   3   0   1 25 
   2   8   4   0   5   1 32
   2   6   6   9   0   1 32
   8   4   6   0   7   1 32
   9   0   4   5   7   1 32
   8   2   6   0   6   1 32
   3   4   5   0   2   1 32
   2   4   3   4   0   1 32
   1   7   8   0   3   1 32
   1   0   2   3   2   1 32
   0   0   0   0   0   0 
